WARNING: for repeatability, setting FPU to use double precision
============================[ Problem Statistics ]=============================
|                                                                             |
|  Number of variables:          2268                                         |
|  Number of clauses:           11115                                         |
|  Parse time:                   0.00 s                                       |
|                                                                             |
============================[ Search Statistics ]==============================
| Conflicts |          ORIGINAL         |          LEARNT          | Progress |
|           |    Vars  Clauses Literals |    Limit  Clauses Lit/Cl |          |
===============================================================================
|       100 |    2268    11115    39858 |     4075      100      5 |  0.000 % |
|       250 |    2268    11115    39858 |     4483      250      7 |  0.000 % |
|       475 |    2268    11115    39858 |     4931      475     13 |  0.000 % |
|       812 |    2268    11115    39858 |     5424      812     16 |  0.000 % |
|      1318 |    2268    11115    39858 |     5966     1318     17 |  0.000 % |
|      2077 |    2268    11115    39858 |     6563     2077     17 |  0.000 % |
|      3216 |    2268    11115    39858 |     7219     3216     18 |  0.000 % |
|      4924 |    2268    11115    39858 |     7941     4924     18 |  0.000 % |
|      7486 |    2268    11115    39858 |     8736     7486     19 |  0.000 % |
|     11330 |    2268    11115    39858 |     9609     6911     19 |  0.000 % |
|     17096 |    2268    11115    39858 |    10570     7655     19 |  0.000 % |
|     25745 |    2268    11115    39858 |    11627     5624     18 |  0.000 % |
|     38719 |    2268    11115    39858 |    12790     6757     24 |  0.000 % |
|     58180 |    2268    11115    39858 |    14069     6850     18 |  0.000 % |
|     87372 |    2268    11115    39858 |    15476     7511     22 |  0.000 % |
|    131161 |    2268    11115    39858 |    17024    12096     19 |  0.000 % |
|    196845 |    2268    11115    39858 |    18726     8772     22 |  0.000 % |
|    295371 |    2268    11115    39858 |    20599    12595     20 |  0.000 % |
|    443160 |    2268    11115    39858 |    22659    14841     23 |  0.000 % |
|    664843 |    2268    11115    39858 |    24925    18633     21 |  0.000 % |
|    997368 |    2268    11115    39858 |    27417    23827     24 |  0.000 % |
===============================================================================
restarts              : 2925
conflicts             : 1492506        (35829 /sec)
decisions             : 2642405        (0.00 % random) (63433 /sec)
propagations          : 187608324      (4503681 /sec)
conflict literals     : 34746850       (16.51 % deleted)
Memory used           : 17.00 MB
CPU time              : 41.6567 s

SATISFIABLE
